
Gurobi 10.0.1 (linux64) logging started Sun Nov 26 16:34:13 2023

Set parameter LogFile to value "ArtificialInstance/ExperimentV2/S4T4K2/BaRo/gurobi91.txt"
Gurobi Optimizer version 10.0.1 build v10.0.1rc0 (linux64)

CPU model: AMD EPYC 7H12 64-Core Processor, instruction set [SSE2|AVX|AVX2]
Thread count: 128 physical cores, 128 logical processors, using up to 32 threads

Academic license 656792 - for non-commercial use only - registered to b.___@student.vu.nl
Optimize a model with 3474 rows, 5201 columns and 18084 nonzeros
Model fingerprint: 0x1ccd3acb
Variable types: 1 continuous, 5200 integer (5200 binary)
Coefficient statistics:
  Matrix range     [1e+00, 4e+01]
  Objective range  [1e+00, 2e+01]
  Bounds range     [1e+00, 1e+00]
  RHS range        [1e+00, 1e+00]
Presolve time: 0.03s
Presolved: 3474 rows, 5201 columns, 18084 nonzeros
Variable types: 1 continuous, 5200 integer (5200 binary)
Found heuristic solution: objective 360.7163858

Root relaxation: objective 4.716137e+01, 4062 iterations, 0.24 seconds (0.18 work units)

    Nodes    |    Current Node    |     Objective Bounds      |     Work
 Expl Unexpl |  Obj  Depth IntInf | Incumbent    BestBd   Gap | It/Node Time

     0     0   47.16137    0  816  360.71639   47.16137  86.9%     -    0s
H    0     0                     139.5137563   47.16137  66.2%     -    0s
H    0     0                     133.8705420   53.55774  60.0%     -    0s
H    0     0                      90.4193658   53.55774  40.8%     -    0s
     0     0   53.55774    0 1022   90.41937   53.55774  40.8%     -    0s
H    0     0                      87.7291782   53.55774  39.0%     -    0s
H    0     0                      86.2561734   53.55774  37.9%     -    0s
H    0     0                      78.6431837   53.55774  31.9%     -    0s
H    0     0                      75.7728263   59.90394  20.9%     -    1s
     0     0   59.90394    0 1181   75.77283   59.90394  20.9%     -    1s
     0     0   59.92777    0 1213   75.77283   59.92777  20.9%     -    1s
     0     0   59.92777    0 1213   75.77283   59.92777  20.9%     -    1s
     0     0   62.55322    0 1185   75.77283   62.55322  17.4%     -    1s
     0     0   62.94542    0 1211   75.77283   62.94542  16.9%     -    2s
     0     0   62.95031    0 1176   75.77283   62.95031  16.9%     -    2s
     0     0   62.95031    0 1176   75.77283   62.95031  16.9%     -    2s
     0     0   63.87578    0 1269   75.77283   63.87578  15.7%     -    2s
     0     0   63.96409    0 1189   75.77283   63.96409  15.6%     -    2s
     0     0   63.99972    0 1194   75.77283   63.99972  15.5%     -    2s
     0     0   64.00418    0 1161   75.77283   64.00418  15.5%     -    2s
     0     0   64.51249    0 1049   75.77283   64.51249  14.9%     -    2s
     0     0   64.54804    0 1097   75.77283   64.54804  14.8%     -    2s
     0     0   64.54965    0 1101   75.77283   64.54965  14.8%     -    2s
     0     0   64.59974    0 1051   75.77283   64.59974  14.7%     -    3s
     0     0   64.59974    0 1058   75.77283   64.59974  14.7%     -    3s
     0     0   64.78778    0  995   75.77283   64.78778  14.5%     -    3s
     0     0   64.84234    0 1054   75.77283   64.84234  14.4%     -    3s
     0     0   64.84649    0 1054   75.77283   64.84649  14.4%     -    3s
     0     0   64.87699    0 1064   75.77283   64.87699  14.4%     -    3s
     0     0   64.88658    0 1121   75.77283   64.88658  14.4%     -    3s
     0     0   64.88954    0 1150   75.77283   64.88954  14.4%     -    3s
     0     0   64.90741    0 1177   75.77283   64.90741  14.3%     -    3s
     0     0   64.91119    0 1180   75.77283   64.91119  14.3%     -    3s
     0     0   65.07109    0 1120   75.77283   65.07109  14.1%     -    3s
     0     0   65.09248    0 1173   75.77283   65.09248  14.1%     -    3s
     0     0   65.09311    0 1190   75.77283   65.09311  14.1%     -    4s
     0     0   65.28301    0 1204   75.77283   65.28301  13.8%     -    4s
     0     0   65.31101    0 1211   75.77283   65.31101  13.8%     -    4s
     0     0   65.31113    0 1202   75.77283   65.31113  13.8%     -    4s
     0     0   65.31119    0 1199   75.77283   65.31119  13.8%     -    4s
     0     0   65.31149    0 1136   75.77283   65.31149  13.8%     -    4s
     0     0   65.31268    0 1157   75.77283   65.31268  13.8%     -    4s
     0     0   65.31268    0 1137   75.77283   65.31268  13.8%     -    4s
     0     2   65.31268    0 1137   75.77283   65.31268  13.8%     -    5s
H   48    52                      75.7728257   68.04632  10.2%  1177    6s
   763     0   74.88061    7  637   75.77283   74.01602  2.32%   422   10s

Cutting planes:
  Gomory: 4
  Zero half: 209
  RLT: 152

Explored 775 nodes (348910 simplex iterations) in 10.03 seconds (10.54 work units)
Thread count was 32 (of 128 available processors)

Solution count 9: 75.7728 75.7728 78.6432 ... 360.716

Optimal solution found (tolerance 1.00e-04)
Best objective 7.577282569396e+01, best bound 7.577282569396e+01, gap 0.0000%
